\ Model MaxExample
\ LP format - for model browsing. Use MPS format to capture full model detail.
Minimize
  30 f_0,0 + 177 f_0,1 + 34 f_1,0 + 132 f_1,1 + 68 f_2,0 + 72 f_2,1
   + 69 f_3,0 + 216 f_3,1 + 132 f_3,2 + 87 f_3,3 + 25 f_4,0 + 44 f_4,1
   + 48 f_4,2 + 43 f_4,3 + 30 f_4,4 + 36 f_5,0 + 40 f_5,1 + 74 f_5,2
   + 48 f_5,3 + 60 f_5,4 + 27 f_6,0 + 35 f_6,1 + 37 f_6,2 + 42 f_6,3
   + 86 f_7,0 + 114 f_7,1 + 122 f_7,2 + 112 f_7,3 + 88 f_7,4 + 69 f_8,0
   + 207 f_8,1 + 64 f_9,0 + 68 f_10,0 + 88 f_10,1 + 25 f_11,0 + 44 f_11,1
   + 48 f_11,2 + 43 f_11,3 + 30 f_11,4 + 44 f_12,0 + 50 f_12,1 + 50 f_12,2
   + 62 f_12,3 + 50 f_12,4 + 21 f_13,0 + 57 f_13,1 + 61 f_13,2 + 30 f_13,3
   + 24 f_13,4 + 29 f_13,5 + 34 f_14,0 + 36 f_14,1 + 13 f_15,0 + 42 f_16,0
   + 108 f_16,1 + 116 f_16,2 + 54 f_16,3 + 52 f_16,4 + 19 f_17,0
   + 19 f_17,1 + 25 f_17,2 + 39 f_18,0 + 177 f_18,1 + 76 f_19,0
   + 100 f_19,1 + 104 f_19,2 + 86 f_19,3 + 84 f_19,4 + 124 f_19,5
   + 24 f_20,0 + 24 f_20,1 + 52 f_21,0 + 54 f_21,1 + 34 f_22,0 + 30 f_23,0
   + 39 f_23,1 + 123 f_23,2 + 57 f_23,3 + 50 f_24,0 + 52 f_24,1 + 60 f_24,2
   + 168 f_25,0 + 244 f_25,1 + 260 f_25,2 + 240 f_25,3 + 188 f_25,4
   + 260 f_25,5 + 180 f_25,6 + 96 f_26,0 + 104 f_27,0 + 268 f_27,1
   + 284 f_27,2 + 160 f_27,3 + 110 f_28,0 + 140 f_28,1 + 150 f_28,2
   + 170 f_28,3 + 30 f_29,0 + 60 f_29,1 + 93 f_30,0 + 111 f_30,1
   + 117 f_30,2 + 129 f_30,3 + 30 f_31,0 + 34 f_31,1 + 38 f_31,2
   + 152 f_32,0 + 292 f_32,1 + 308 f_32,2 + 184 f_32,3 + 244 f_32,4
   + 180 f_32,5 + 69 f_33,0 + 168 f_33,1 + 174 f_33,2 + 100 f_34,0
   + 205 f_34,1 + 35 f_35,0 + 63 f_36,0 + 78 f_36,1 + 84 f_36,2 + 96 f_36,3
   + 88 f_37,0 + 100 f_37,1 + 100 f_37,2 + 124 f_37,3 + 184 f_37,4
   + 195 f_38,0 + 250 f_38,1 + 260 f_38,2 + 215 f_38,3 + 210 f_38,4
   + 310 f_38,5 + 84 f_39,0 + 84 f_39,1 + 102 f_39,2 + 1000 s_0 + 0 s_1
   + 0 s_2 + 0 s_3 + 0 s_4 + 1000 s_5 + 1000 s_6 + 1000 s_7 + 0 s_8 + 0 s_9
   + 1000 s_10 + 0 s_11 + 1000 s_12 + 0 s_13 + 1000 s_14 + 0 s_15 + 0 s_16
   + 1000 s_17 + 0 s_18 + 1000 s_19 + 0 s_20 + 1000 s_21 + 0 s_22
   + 1000 s_23 + 0 s_24 + 1000 s_25 + 1000 s_26 + 0 s_27 + 0 s_28
   + 1000 s_29
Subject To
 R0: 3 f_0,0 + 2 f_1,0 + 3 f_3,0 + 3 f_3,3 + f_4,0 + f_4,4 + 2 f_5,4
   + f_11,0 + f_11,4 + 2 f_19,5 + 4 f_25,5 + 5 f_38,5 - s_0 <= 5
 R1: 2 f_1,0 + 2 f_1,1 + 2 f_5,3 + f_6,1 + f_6,2 + 2 f_7,1 + 2 f_7,2
   + 2 f_7,3 + 2 f_19,1 + 2 f_19,2 + 2 f_19,3 + 2 f_19,5 + 4 f_25,1
   + 4 f_25,2 + 4 f_25,3 + 4 f_25,5 + 2 f_31,2 + 5 f_38,1 + 5 f_38,2
   + 5 f_38,3 + 5 f_38,5 <= 5
 R2: 3 f_3,3 + f_4,2 + 2 f_5,1 + f_6,2 + 2 f_7,2 + f_11,2 + f_13,2
   + 2 f_16,2 + 2 f_19,2 + 4 f_25,2 + 4 f_27,2 + 2 f_31,0 + 4 f_32,2
   + 3 f_33,2 + 5 f_38,2 <= 2
 R3: 3 f_3,0 + 3 f_3,1 + f_4,3 + 2 f_5,2 + 2 f_7,3 + f_11,3 + f_13,1
   + f_13,2 + 2 f_16,1 + 2 f_16,2 + 2 f_19,3 + 4 f_25,3 + 4 f_27,1
   + 4 f_27,2 + 2 f_31,1 + 4 f_32,1 + 4 f_32,2 + 3 f_33,1 + 3 f_33,2
   + 5 f_38,3 <= 3
 R4: 3 f_0,1 + 2 f_1,1 + 3 f_3,1 + f_4,1 + 2 f_5,0 + f_6,1 + 2 f_7,1
   + f_11,1 + f_13,1 + 2 f_16,1 + 2 f_19,1 + 4 f_25,1 + 4 f_27,1 + 4 f_32,1
   + 3 f_33,1 + 5 f_38,1 <= 4
 R5: 2 f_5,3 + f_6,0 + f_6,3 + 2 f_7,0 + 2 f_7,4 + 2 f_19,0 + 2 f_19,4
   + 4 f_25,0 + 4 f_25,4 + 4 f_25,6 + 2 f_31,2 + 5 f_38,0 + 5 f_38,4 - s_5
   <= 8
 R6: 3 f_3,2 + 2 f_5,4 + 2 f_19,5 + 2 f_24,2 + 4 f_25,5 + 5 f_34,0
   + 5 f_38,5 - s_6 <= 4
 R7: 4 f_2,0 + f_4,4 + f_11,4 + 2 f_14,0 + 2 f_21,0 + 2 f_24,0 - s_7 <= 2
 R8: 3 f_0,1 + 2 f_1,1 + 4 f_2,1 + 3 f_3,1 + f_4,0 + f_11,0 + 2 f_14,1
   + 2 f_21,1 + 2 f_24,1 + 5 f_34,1 <= 2
 R9: 3 f_8,0 + 3 f_8,1 + 2 f_9,0 + 4 f_10,1 + 3 f_26,0 + 4 f_32,1
   + 4 f_32,2 + 4 f_32,3 + 4 f_32,4 + 4 f_32,5 <= 8
 R10: 4 f_10,0 + 4 f_32,0 - s_10 <= 6
 R11: 3 f_0,1 + 2 f_1,1 + 4 f_2,1 + 3 f_3,1 + f_4,1 + f_4,2 + f_4,3 + f_4,4
   + 4 f_10,1 + f_11,1 + f_11,2 + f_11,3 + f_11,4 + 2 f_12,1 + 2 f_12,2
   + 2 f_12,3 + 2 f_12,4 + f_13,1 + f_13,2 + f_13,3 + f_13,4 + f_13,5
   + 2 f_14,1 + 2 f_21,1 + 3 f_23,1 + 3 f_23,2 + 3 f_23,3 + 2 f_24,1
   + 5 f_34,1 + 3 f_36,0 + 3 f_36,1 + 3 f_36,2 + 3 f_36,3 + 4 f_37,1
   + 4 f_37,2 + 4 f_37,3 + 4 f_37,4 <= 10
 R12: 2 f_12,0 + f_13,0 + 3 f_23,0 + 4 f_32,0 + 4 f_37,0 - s_12 <= 10
 R13: f_4,3 + 2 f_7,3 + 3 f_8,0 + f_11,3 + 2 f_12,3 + f_13,3 + 2 f_16,3
   + f_17,2 + 3 f_18,0 + 2 f_19,0 + 3 f_23,3 + 4 f_25,3 + 4 f_27,3
   + 5 f_28,3 + 3 f_30,3 + 4 f_32,3 + 3 f_36,3 + 4 f_37,3 + 3 f_39,2 <= 8
 R14: 2 f_7,0 + 2 f_7,1 + 2 f_7,2 + 2 f_7,3 + 2 f_7,4 + 3 f_18,0 + 3 f_18,1
   + 2 f_21,0 + 2 f_21,1 + 2 f_22,0 + 3 f_30,0 + 3 f_30,1 + 3 f_30,2
   + 3 f_30,3 + 3 f_39,0 + 3 f_39,1 + 3 f_39,2 - s_14 <= 12
 R15: 3 f_0,1 + 2 f_1,1 + 3 f_3,1 + f_4,1 + 2 f_7,1 + f_11,1 + 2 f_12,1
   + 2 f_12,4 + f_13,1 + f_13,4 + 2 f_16,0 + 2 f_16,1 + f_17,0 + 3 f_23,1
   + 4 f_25,1 + 4 f_27,1 + 5 f_28,1 + 3 f_30,1 + 4 f_32,1 + 5 f_34,1
   + 3 f_36,1 + 4 f_37,1 + 3 f_39,1 <= 5
 R16: 2 f_9,0 + 2 f_12,2 + f_15,0 + f_17,1 + 4 f_25,1 + 4 f_25,2 + 4 f_25,3
   + 4 f_25,4 + 3 f_26,0 + 4 f_27,1 + 4 f_27,2 + 4 f_27,3 + 4 f_37,2
   + 3 f_39,0 <= 10
 R17: f_6,3 + 2 f_7,0 + f_13,5 + 2 f_16,4 + 2 f_19,0 + 4 f_25,4 + 5 f_28,0
   + 2 f_29,1 + 3 f_30,0 + 4 f_32,5 - s_17 <= 5
 R18: f_4,2 + 2 f_7,2 + 3 f_8,1 + f_11,2 + f_13,2 + 2 f_16,2 + 3 f_18,1
   + 3 f_23,2 + 4 f_25,2 + 4 f_27,2 + 5 f_28,2 + 3 f_30,2 + 4 f_32,2
   + 3 f_36,2 <= 3
 R19: f_6,3 + 2 f_7,4 + 2 f_22,0 + 2 f_24,0 + 2 f_24,1 + 2 f_29,1
   + 4 f_32,4 + 3 f_36,0 + 4 f_37,4 - s_19 <= 5
 R20: f_4,3 + 2 f_7,3 + 3 f_8,1 + f_11,3 + 2 f_12,3 + f_13,3 + 2 f_16,3
   + f_17,2 + 3 f_18,1 + 2 f_19,1 + 2 f_19,2 + 2 f_19,3 + 2 f_19,4
   + 2 f_19,5 + f_20,0 + f_20,1 + 3 f_23,3 + 4 f_25,3 + 4 f_27,3 + 5 f_28,3
   + 3 f_30,3 + 4 f_32,3 + 3 f_33,0 + 3 f_33,1 + 3 f_33,2 + 3 f_36,3
   + 4 f_37,3 + 3 f_39,2 <= 5
 R21: 3 f_3,2 + f_4,3 + 2 f_5,2 + 2 f_7,3 + f_11,3 + f_13,0 + f_13,3
   + f_13,4 + 2 f_16,0 + 2 f_16,3 + 2 f_19,3 + 4 f_25,0 + 4 f_25,3
   + 4 f_27,0 + 4 f_27,3 + 4 f_32,0 + 4 f_32,3 + 4 f_32,4 + 3 f_33,0
   + 5 f_38,0 + 5 f_38,3 - s_21 <= 14
 R22: 3 f_0,1 + 2 f_1,1 + 3 f_3,1 + 3 f_3,2 + f_4,1 + 2 f_5,2 + 2 f_7,1
   + 3 f_8,1 + f_11,1 + f_13,1 + 2 f_16,1 + 3 f_18,1 + 2 f_19,1 + 2 f_19,2
   + 2 f_19,4 + 2 f_19,5 + 3 f_23,2 + 4 f_25,1 + 4 f_25,5 + 4 f_25,6
   + 4 f_27,1 + 5 f_28,1 + 5 f_28,3 + 3 f_30,1 + 3 f_30,3 + 4 f_32,1
   + 4 f_32,4 + 3 f_33,1 + 3 f_33,2 + 5 f_34,1 + 3 f_36,1 + 3 f_36,3
   + 4 f_37,4 + 5 f_38,1 + 5 f_38,2 + 5 f_38,4 + 5 f_38,5 <= 4
 R23: 2 f_12,0 + 2 f_12,3 + 2 f_12,4 + f_20,0 + 4 f_37,0 + 4 f_37,3
   + 4 f_37,4 + 5 f_38,0 + 5 f_38,2 + 5 f_38,3 + 5 f_38,4 + 5 f_38,5 - s_23
   <= 8
 R24: 2 f_12,1 + f_17,0 + f_17,2 + f_20,1 + 4 f_25,0 + 4 f_25,5 + 4 f_25,6
   + 4 f_27,0 + 4 f_37,1 + 5 f_38,1 + 3 f_39,1 + 3 f_39,2 <= 10
 R25: f_6,0 + f_6,1 + f_6,2 + 2 f_7,4 + 2 f_24,2 + 2 f_29,0 + 4 f_32,4
   + 3 f_36,0 + 4 f_37,4 - s_25 <= 5
 R26: 2 f_12,2 + f_17,1 + 4 f_25,0 + 4 f_25,5 + 4 f_25,6 + 4 f_27,0
   + 4 f_37,2 + 3 f_39,0 - s_26 <= 8
 R27: 2 f_12,1 + 2 f_12,2 + f_20,1 + 4 f_37,1 + 4 f_37,2 + 5 f_38,1 <= 7
 R28: f_4,2 + 2 f_5,1 + 2 f_5,3 + f_6,0 + f_6,2 + 2 f_7,2 + 2 f_7,4
   + f_11,2 + f_13,2 + 2 f_16,2 + 2 f_19,2 + 2 f_19,4 + 4 f_25,2 + 4 f_25,6
   + 4 f_27,2 + 5 f_28,1 + 5 f_28,2 + 5 f_28,3 + 2 f_29,0 + 3 f_30,1
   + 3 f_30,2 + 3 f_30,3 + 4 f_32,2 + 3 f_33,2 + 7 f_35,0 + 5 f_38,2
   + 5 f_38,4 <= 10
 R29: 3 f_3,3 + f_13,5 + 2 f_16,4 + 4 f_25,0 + 2 f_31,1 + 4 f_32,5
   + 5 f_38,0 - s_29 <= 5
 R30: f_0,0 + f_0,1 = 1
 R31: f_1,0 + f_1,1 = 1
 R32: f_2,0 + f_2,1 = 1
 R33: f_3,0 + f_3,1 + f_3,2 + f_3,3 = 1
 R34: f_4,0 + f_4,1 + f_4,2 + f_4,3 + f_4,4 = 1
 R35: f_5,0 + f_5,1 + f_5,2 + f_5,3 + f_5,4 = 1
 R36: f_6,0 + f_6,1 + f_6,2 + f_6,3 = 1
 R37: f_7,0 + f_7,1 + f_7,2 + f_7,3 + f_7,4 = 1
 R38: f_8,0 + f_8,1 = 1
 R39: f_9,0 = 1
 R40: f_10,0 + f_10,1 = 1
 R41: f_11,0 + f_11,1 + f_11,2 + f_11,3 + f_11,4 = 1
 R42: f_12,0 + f_12,1 + f_12,2 + f_12,3 + f_12,4 = 1
 R43: f_13,0 + f_13,1 + f_13,2 + f_13,3 + f_13,4 + f_13,5 = 1
 R44: f_14,0 + f_14,1 = 1
 R45: f_15,0 = 1
 R46: f_16,0 + f_16,1 + f_16,2 + f_16,3 + f_16,4 = 1
 R47: f_17,0 + f_17,1 + f_17,2 = 1
 R48: f_18,0 + f_18,1 = 1
 R49: f_19,0 + f_19,1 + f_19,2 + f_19,3 + f_19,4 + f_19,5 = 1
 R50: f_20,0 + f_20,1 = 1
 R51: f_21,0 + f_21,1 = 1
 R52: f_22,0 = 1
 R53: f_23,0 + f_23,1 + f_23,2 + f_23,3 = 1
 R54: f_24,0 + f_24,1 + f_24,2 = 1
 R55: f_25,0 + f_25,1 + f_25,2 + f_25,3 + f_25,4 + f_25,5 + f_25,6 = 1
 R56: f_26,0 = 1
 R57: f_27,0 + f_27,1 + f_27,2 + f_27,3 = 1
 R58: f_28,0 + f_28,1 + f_28,2 + f_28,3 = 1
 R59: f_29,0 + f_29,1 = 1
 R60: f_30,0 + f_30,1 + f_30,2 + f_30,3 = 1
 R61: f_31,0 + f_31,1 + f_31,2 = 1
 R62: f_32,0 + f_32,1 + f_32,2 + f_32,3 + f_32,4 + f_32,5 = 1
 R63: f_33,0 + f_33,1 + f_33,2 = 1
 R64: f_34,0 + f_34,1 = 1
 R65: f_35,0 = 1
 R66: f_36,0 + f_36,1 + f_36,2 + f_36,3 = 1
 R67: f_37,0 + f_37,1 + f_37,2 + f_37,3 + f_37,4 = 1
 R68: f_38,0 + f_38,1 + f_38,2 + f_38,3 + f_38,4 + f_38,5 = 1
 R69: f_39,0 + f_39,1 + f_39,2 = 1
Bounds
End
